  8	56
 14
  0	 49	  6	105	 19	 62	 36	 92	 75	 14	  9	 70	 65	113	
 10
  0	 22	 78	  7	 63	 26	 16	 72	 82	113	
 16
  0	 25	 21	 43	 81	 53	 51	 99	109	 77	  8	 47	103	107	 64	113	
 16
  0	 45	 23	101	 79	 35	 34	 12	 55	 28	 90	 91	 84	111	 68	113	
 20
  0	 37	 93	 48	 32	 88	 13	104	 39	 95	 20	 69	 42	 98	 40	 76	 17	 96	 73	113	
 22
  0	 41	  4	 97	 15	 10	 60	 66	 71	 33	 89	  2	 44	 58	 30	 86	 56	100	 54	110	112	113	
 12
  0	 11	 67	 52	 24	 46	 80	108	 31	102	 87	113	
 18
  0	  5	 50	 61	106	 29	 18	 27	 74	 85	 38	  1	  3	 83	 59	 57	 94	113	
